800 1600 
1 769 -1
1 33 1
1 32 -1
1 2 -1
2 770 -1
2 34 -1
2 3 -1
3 771 1
3 35 -1
3 4 1
4 772 1
4 36 -1
4 5 1
5 773 -1
5 37 -1
5 6 1
6 774 1
6 38 1
6 7 1
7 775 1
7 39 -1
7 8 1
8 776 1
8 40 -1
8 9 1
9 777 1
9 41 -1
9 10 -1
10 778 -1
10 42 -1
10 11 -1
11 779 1
11 43 -1
11 12 -1
12 780 -1
12 44 1
12 13 -1
13 781 1
13 45 -1
13 14 1
14 782 -1
14 46 -1
14 15 1
15 783 1
15 47 -1
15 16 1
16 784 1
16 48 -1
16 17 1
17 785 -1
17 49 1
17 18 1
18 786 1
18 50 1
18 19 -1
19 787 1
19 51 1
19 20 -1
20 788 1
20 52 -1
20 21 -1
21 789 1
21 53 -1
21 22 1
22 790 1
22 54 1
22 23 1
23 791 1
23 55 1
23 24 1
24 792 -1
24 56 -1
24 25 -1
25 793 -1
25 57 1
25 26 -1
26 794 -1
26 58 1
26 27 1
27 795 1
27 59 -1
27 28 -1
28 796 1
28 60 -1
28 29 -1
29 797 1
29 61 1
29 30 1
30 798 -1
30 62 -1
30 31 1
31 799 -1
31 63 1
31 32 1
32 800 1
32 64 1
33 65 1
33 64 1
33 34 -1
34 66 -1
34 35 1
35 67 -1
35 36 1
36 68 -1
36 37 1
37 69 -1
37 38 1
38 70 -1
38 39 -1
39 71 -1
39 40 -1
40 72 -1
40 41 1
41 73 1
41 42 -1
42 74 1
42 43 -1
43 75 -1
43 44 1
44 76 1
44 45 -1
45 77 -1
45 46 1
46 78 1
46 47 -1
47 79 -1
47 48 -1
48 80 -1
48 49 -1
49 81 -1
49 50 1
50 82 -1
50 51 1
51 83 -1
51 52 1
52 84 1
52 53 1
53 85 -1
53 54 -1
54 86 1
54 55 1
55 87 -1
55 56 -1
56 88 -1
56 57 1
57 89 1
57 58 -1
58 90 -1
58 59 1
59 91 -1
59 60 -1
60 92 -1
60 61 -1
61 93 1
61 62 1
62 94 -1
62 63 -1
63 95 1
63 64 -1
64 96 1
65 97 1
65 96 1
65 66 -1
66 98 1
66 67 1
67 99 1
67 68 -1
68 100 1
68 69 1
69 101 -1
69 70 -1
70 102 1
70 71 -1
71 103 1
71 72 -1
72 104 -1
72 73 1
73 105 -1
73 74 1
74 106 1
74 75 1
75 107 1
75 76 -1
76 108 -1
76 77 -1
77 109 1
77 78 -1
78 110 1
78 79 1
79 111 1
79 80 -1
80 112 -1
80 81 -1
81 113 -1
81 82 1
82 114 1
82 83 -1
83 115 -1
83 84 1
84 116 -1
84 85 1
85 117 1
85 86 -1
86 118 1
86 87 1
87 119 1
87 88 -1
88 120 -1
88 89 -1
89 121 -1
89 90 -1
90 122 -1
90 91 1
91 123 -1
91 92 1
92 124 1
92 93 -1
93 125 -1
93 94 -1
94 126 -1
94 95 -1
95 127 1
95 96 -1
96 128 -1
97 129 -1
97 128 -1
97 98 1
98 130 1
98 99 1
99 131 -1
99 100 1
100 132 -1
100 101 1
101 133 -1
101 102 -1
102 134 1
102 103 -1
103 135 -1
103 104 1
104 136 -1
104 105 -1
105 137 1
105 106 -1
106 138 1
106 107 1
107 139 1
107 108 1
108 140 1
108 109 -1
109 141 -1
109 110 -1
110 142 1
110 111 -1
111 143 -1
111 112 1
112 144 1
112 113 1
113 145 1
113 114 1
114 146 -1
114 115 1
115 147 -1
115 116 1
116 148 -1
116 117 1
117 149 1
117 118 1
118 150 -1
118 119 -1
119 151 1
119 120 1
120 152 1
120 121 -1
121 153 1
121 122 1
122 154 1
122 123 -1
123 155 -1
123 124 -1
124 156 1
124 125 1
125 157 1
125 126 -1
126 158 -1
126 127 -1
127 159 -1
127 128 1
128 160 -1
129 161 -1
129 160 -1
129 130 -1
130 162 1
130 131 1
131 163 -1
131 132 1
132 164 1
132 133 -1
133 165 -1
133 134 1
134 166 1
134 135 1
135 167 -1
135 136 -1
136 168 1
136 137 1
137 169 -1
137 138 1
138 170 1
138 139 -1
139 171 1
139 140 1
140 172 1
140 141 -1
141 173 -1
141 142 1
142 174 1
142 143 1
143 175 1
143 144 1
144 176 1
144 145 1
145 177 -1
145 146 -1
146 178 -1
146 147 -1
147 179 1
147 148 1
148 180 1
148 149 1
149 181 1
149 150 1
150 182 1
150 151 -1
151 183 -1
151 152 1
152 184 1
152 153 -1
153 185 -1
153 154 1
154 186 -1
154 155 1
155 187 1
155 156 -1
156 188 1
156 157 -1
157 189 1
157 158 -1
158 190 -1
158 159 -1
159 191 -1
159 160 -1
160 192 1
161 193 -1
161 192 -1
161 162 -1
162 194 1
162 163 -1
163 195 -1
163 164 -1
164 196 -1
164 165 1
165 197 -1
165 166 1
166 198 -1
166 167 1
167 199 -1
167 168 -1
168 200 1
168 169 -1
169 201 1
169 170 1
170 202 1
170 171 -1
171 203 1
171 172 1
172 204 1
172 173 -1
173 205 1
173 174 1
174 206 -1
174 175 -1
175 207 -1
175 176 1
176 208 1
176 177 -1
177 209 -1
177 178 -1
178 210 -1
178 179 -1
179 211 1
179 180 -1
180 212 -1
180 181 1
181 213 1
181 182 -1
182 214 -1
182 183 -1
183 215 1
183 184 -1
184 216 -1
184 185 1
185 217 1
185 186 -1
186 218 1
186 187 1
187 219 -1
187 188 -1
188 220 1
188 189 1
189 221 1
189 190 1
190 222 -1
190 191 -1
191 223 -1
191 192 1
192 224 -1
193 225 1
193 224 -1
193 194 -1
194 226 1
194 195 1
195 227 1
195 196 1
196 228 -1
196 197 -1
197 229 1
197 198 -1
198 230 1
198 199 1
199 231 -1
199 200 1
200 232 1
200 201 1
201 233 1
201 202 -1
202 234 -1
202 203 -1
203 235 -1
203 204 1
204 236 1
204 205 -1
205 237 -1
205 206 1
206 238 -1
206 207 1
207 239 1
207 208 -1
208 240 -1
208 209 1
209 241 -1
209 210 1
210 242 -1
210 211 -1
211 243 1
211 212 1
212 244 -1
212 213 -1
213 245 -1
213 214 -1
214 246 1
214 215 -1
215 247 1
215 216 1
216 248 1
216 217 -1
217 249 -1
217 218 1
218 250 -1
218 219 -1
219 251 1
219 220 -1
220 252 1
220 221 -1
221 253 -1
221 222 1
222 254 -1
222 223 1
223 255 1
223 224 1
224 256 1
225 257 1
225 256 -1
225 226 1
226 258 -1
226 227 -1
227 259 1
227 228 -1
228 260 -1
228 229 1
229 261 1
229 230 1
230 262 -1
230 231 -1
231 263 -1
231 232 -1
232 264 1
232 233 1
233 265 -1
233 234 -1
234 266 -1
234 235 1
235 267 1
235 236 1
236 268 1
236 237 1
237 269 -1
237 238 1
238 270 -1
238 239 -1
239 271 -1
239 240 -1
240 272 1
240 241 1
241 273 1
241 242 1
242 274 1
242 243 1
243 275 1
243 244 1
244 276 1
244 245 1
245 277 1
245 246 -1
246 278 1
246 247 -1
247 279 1
247 248 1
248 280 -1
248 249 1
249 281 1
249 250 1
250 282 -1
250 251 1
251 283 1
251 252 -1
252 284 1
252 253 1
253 285 1
253 254 -1
254 286 1
254 255 -1
255 287 -1
255 256 -1
256 288 1
257 289 1
257 288 -1
257 258 -1
258 290 1
258 259 1
259 291 -1
259 260 -1
260 292 -1
260 261 -1
261 293 1
261 262 1
262 294 1
262 263 -1
263 295 1
263 264 -1
264 296 -1
264 265 1
265 297 -1
265 266 1
266 298 -1
266 267 -1
267 299 1
267 268 1
268 300 -1
268 269 1
269 301 1
269 270 -1
270 302 1
270 271 1
271 303 -1
271 272 1
272 304 1
272 273 -1
273 305 1
273 274 1
274 306 -1
274 275 1
275 307 -1
275 276 1
276 308 1
276 277 1
277 309 1
277 278 1
278 310 -1
278 279 -1
279 311 1
279 280 -1
280 312 1
280 281 -1
281 313 -1
281 282 1
282 314 -1
282 283 -1
283 315 1
283 284 -1
284 316 -1
284 285 1
285 317 1
285 286 -1
286 318 -1
286 287 -1
287 319 1
287 288 -1
288 320 -1
289 321 1
289 320 1
289 290 -1
290 322 1
290 291 1
291 323 1
291 292 1
292 324 1
292 293 -1
293 325 1
293 294 -1
294 326 1
294 295 -1
295 327 1
295 296 -1
296 328 1
296 297 -1
297 329 1
297 298 1
298 330 -1
298 299 -1
299 331 1
299 300 -1
300 332 -1
300 301 -1
301 333 -1
301 302 1
302 334 1
302 303 -1
303 335 1
303 304 1
304 336 -1
304 305 -1
305 337 -1
305 306 -1
306 338 1
306 307 1
307 339 -1
307 308 -1
308 340 -1
308 309 1
309 341 1
309 310 -1
310 342 1
310 311 -1
311 343 -1
311 312 1
312 344 -1
312 313 1
313 345 1
313 314 1
314 346 1
314 315 -1
315 347 -1
315 316 -1
316 348 1
316 317 1
317 349 -1
317 318 -1
318 350 -1
318 319 -1
319 351 -1
319 320 -1
320 352 1
321 353 1
321 352 1
321 322 1
322 354 -1
322 323 -1
323 355 1
323 324 1
324 356 -1
324 325 -1
325 357 -1
325 326 1
326 358 1
326 327 1
327 359 -1
327 328 -1
328 360 -1
328 329 -1
329 361 -1
329 330 1
330 362 1
330 331 1
331 363 1
331 332 1
332 364 1
332 333 -1
333 365 1
333 334 -1
334 366 -1
334 335 1
335 367 1
335 336 -1
336 368 -1
336 337 1
337 369 1
337 338 1
338 370 1
338 339 -1
339 371 -1
339 340 -1
340 372 -1
340 341 -1
341 373 1
341 342 1
342 374 -1
342 343 1
343 375 -1
343 344 1
344 376 1
344 345 -1
345 377 -1
345 346 1
346 378 1
346 347 1
347 379 -1
347 348 1
348 380 1
348 349 -1
349 381 1
349 350 -1
350 382 1
350 351 -1
351 383 -1
351 352 1
352 384 -1
353 385 -1
353 384 -1
353 354 -1
354 386 -1
354 355 1
355 387 -1
355 356 -1
356 388 -1
356 357 -1
357 389 -1
357 358 1
358 390 1
358 359 1
359 391 -1
359 360 -1
360 392 -1
360 361 1
361 393 -1
361 362 -1
362 394 1
362 363 1
363 395 1
363 364 1
364 396 -1
364 365 -1
365 397 1
365 366 1
366 398 1
366 367 1
367 399 -1
367 368 -1
368 400 -1
368 369 -1
369 401 1
369 370 1
370 402 1
370 371 1
371 403 1
371 372 1
372 404 -1
372 373 1
373 405 -1
373 374 1
374 406 -1
374 375 1
375 407 -1
375 376 1
376 408 1
376 377 -1
377 409 1
377 378 1
378 410 1
378 379 -1
379 411 1
379 380 -1
380 412 1
380 381 1
381 413 -1
381 382 1
382 414 -1
382 383 1
383 415 -1
383 384 -1
384 416 -1
385 417 1
385 416 1
385 386 -1
386 418 1
386 387 1
387 419 1
387 388 -1
388 420 1
388 389 1
389 421 1
389 390 -1
390 422 1
390 391 -1
391 423 -1
391 392 -1
392 424 1
392 393 1
393 425 -1
393 394 1
394 426 1
394 395 1
395 427 -1
395 396 -1
396 428 -1
396 397 -1
397 429 -1
397 398 -1
398 430 -1
398 399 1
399 431 -1
399 400 1
400 432 1
400 401 -1
401 433 -1
401 402 -1
402 434 1
402 403 -1
403 435 1
403 404 1
404 436 1
404 405 1
405 437 1
405 406 1
406 438 -1
406 407 -1
407 439 1
407 408 -1
408 440 1
408 409 1
409 441 1
409 410 1
410 442 1
410 411 -1
411 443 1
411 412 1
412 444 -1
412 413 -1
413 445 1
413 414 -1
414 446 -1
414 415 -1
415 447 -1
415 416 -1
416 448 1
417 449 -1
417 448 -1
417 418 -1
418 450 -1
418 419 1
419 451 1
419 420 1
420 452 -1
420 421 1
421 453 -1
421 422 1
422 454 -1
422 423 -1
423 455 1
423 424 1
424 456 1
424 425 -1
425 457 -1
425 426 1
426 458 -1
426 427 -1
427 459 -1
427 428 1
428 460 -1
428 429 1
429 461 -1
429 430 -1
430 462 -1
430 431 -1
431 463 -1
431 432 -1
432 464 1
432 433 1
433 465 -1
433 434 -1
434 466 -1
434 435 1
435 467 -1
435 436 -1
436 468 1
436 437 -1
437 469 -1
437 438 1
438 470 1
438 439 -1
439 471 1
439 440 -1
440 472 -1
440 441 1
441 473 -1
441 442 1
442 474 -1
442 443 1
443 475 1
443 444 1
444 476 -1
444 445 -1
445 477 1
445 446 -1
446 478 -1
446 447 -1
447 479 -1
447 448 1
448 480 -1
449 481 1
449 480 1
449 450 -1
450 482 1
450 451 1
451 483 -1
451 452 1
452 484 1
452 453 1
453 485 -1
453 454 1
454 486 1
454 455 1
455 487 -1
455 456 -1
456 488 -1
456 457 1
457 489 1
457 458 -1
458 490 1
458 459 -1
459 491 1
459 460 -1
460 492 1
460 461 1
461 493 -1
461 462 -1
462 494 1
462 463 -1
463 495 -1
463 464 -1
464 496 1
464 465 1
465 497 1
465 466 1
466 498 1
466 467 1
467 499 1
467 468 -1
468 500 1
468 469 1
469 501 1
469 470 -1
470 502 1
470 471 -1
471 503 1
471 472 1
472 504 -1
472 473 1
473 505 -1
473 474 -1
474 506 -1
474 475 -1
475 507 -1
475 476 1
476 508 1
476 477 1
477 509 -1
477 478 -1
478 510 1
478 479 -1
479 511 1
479 480 -1
480 512 1
481 513 1
481 512 1
481 482 1
482 514 -1
482 483 -1
483 515 1
483 484 -1
484 516 -1
484 485 1
485 517 1
485 486 1
486 518 -1
486 487 -1
487 519 1
487 488 -1
488 520 1
488 489 -1
489 521 1
489 490 1
490 522 1
490 491 -1
491 523 -1
491 492 1
492 524 -1
492 493 1
493 525 -1
493 494 -1
494 526 1
494 495 -1
495 527 1
495 496 -1
496 528 1
496 497 -1
497 529 1
497 498 -1
498 530 -1
498 499 1
499 531 1
499 500 1
500 532 -1
500 501 -1
501 533 1
501 502 -1
502 534 1
502 503 -1
503 535 -1
503 504 -1
504 536 1
504 505 -1
505 537 1
505 506 1
506 538 -1
506 507 1
507 539 -1
507 508 -1
508 540 1
508 509 1
509 541 1
509 510 1
510 542 1
510 511 -1
511 543 1
511 512 -1
512 544 -1
513 545 1
513 544 1
513 514 -1
514 546 -1
514 515 -1
515 547 1
515 516 -1
516 548 1
516 517 1
517 549 1
517 518 -1
518 550 1
518 519 -1
519 551 -1
519 520 1
520 552 -1
520 521 -1
521 553 -1
521 522 1
522 554 1
522 523 1
523 555 1
523 524 -1
524 556 1
524 525 -1
525 557 -1
525 526 -1
526 558 -1
526 527 1
527 559 1
527 528 1
528 560 1
528 529 -1
529 561 -1
529 530 1
530 562 1
530 531 -1
531 563 1
531 532 1
532 564 1
532 533 -1
533 565 -1
533 534 -1
534 566 -1
534 535 1
535 567 1
535 536 1
536 568 -1
536 537 1
537 569 1
537 538 1
538 570 1
538 539 -1
539 571 1
539 540 -1
540 572 -1
540 541 -1
541 573 1
541 542 -1
542 574 -1
542 543 -1
543 575 1
543 544 1
544 576 -1
545 577 1
545 576 1
545 546 -1
546 578 1
546 547 1
547 579 1
547 548 -1
548 580 1
548 549 -1
549 581 -1
549 550 -1
550 582 1
550 551 1
551 583 1
551 552 -1
552 584 1
552 553 1
553 585 1
553 554 -1
554 586 -1
554 555 1
555 587 1
555 556 -1
556 588 1
556 557 -1
557 589 1
557 558 1
558 590 1
558 559 1
559 591 -1
559 560 -1
560 592 1
560 561 -1
561 593 1
561 562 -1
562 594 -1
562 563 1
563 595 1
563 564 1
564 596 -1
564 565 -1
565 597 1
565 566 1
566 598 -1
566 567 1
567 599 -1
567 568 -1
568 600 -1
568 569 1
569 601 1
569 570 -1
570 602 -1
570 571 -1
571 603 1
571 572 1
572 604 -1
572 573 -1
573 605 1
573 574 -1
574 606 1
574 575 -1
575 607 -1
575 576 1
576 608 1
577 609 1
577 608 -1
577 578 -1
578 610 -1
578 579 -1
579 611 -1
579 580 -1
580 612 -1
580 581 -1
581 613 1
581 582 -1
582 614 -1
582 583 1
583 615 -1
583 584 1
584 616 1
584 585 1
585 617 1
585 586 1
586 618 -1
586 587 1
587 619 -1
587 588 -1
588 620 1
588 589 1
589 621 1
589 590 1
590 622 1
590 591 -1
591 623 -1
591 592 -1
592 624 1
592 593 1
593 625 1
593 594 1
594 626 -1
594 595 1
595 627 -1
595 596 -1
596 628 -1
596 597 1
597 629 -1
597 598 1
598 630 1
598 599 1
599 631 -1
599 600 -1
600 632 -1
600 601 -1
601 633 1
601 602 1
602 634 -1
602 603 1
603 635 1
603 604 -1
604 636 1
604 605 -1
605 637 -1
605 606 1
606 638 1
606 607 1
607 639 -1
607 608 -1
608 640 1
609 641 -1
609 640 -1
609 610 1
610 642 1
610 611 -1
611 643 1
611 612 -1
612 644 -1
612 613 1
613 645 1
613 614 -1
614 646 -1
614 615 1
615 647 -1
615 616 1
616 648 -1
616 617 -1
617 649 1
617 618 -1
618 650 -1
618 619 1
619 651 1
619 620 -1
620 652 -1
620 621 -1
621 653 1
621 622 1
622 654 -1
622 623 -1
623 655 1
623 624 -1
624 656 -1
624 625 1
625 657 -1
625 626 1
626 658 1
626 627 1
627 659 -1
627 628 1
628 660 1
628 629 1
629 661 -1
629 630 1
630 662 -1
630 631 1
631 663 1
631 632 1
632 664 1
632 633 1
633 665 -1
633 634 1
634 666 1
634 635 -1
635 667 1
635 636 -1
636 668 1
636 637 1
637 669 1
637 638 -1
638 670 -1
638 639 1
639 671 -1
639 640 1
640 672 1
641 673 -1
641 672 1
641 642 1
642 674 1
642 643 -1
643 675 1
643 644 -1
644 676 1
644 645 1
645 677 1
645 646 -1
646 678 -1
646 647 -1
647 679 -1
647 648 1
648 680 -1
648 649 1
649 681 -1
649 650 -1
650 682 1
650 651 -1
651 683 -1
651 652 1
652 684 1
652 653 -1
653 685 1
653 654 1
654 686 1
654 655 -1
655 687 -1
655 656 1
656 688 1
656 657 -1
657 689 1
657 658 -1
658 690 1
658 659 1
659 691 -1
659 660 1
660 692 -1
660 661 -1
661 693 1
661 662 -1
662 694 1
662 663 1
663 695 -1
663 664 1
664 696 -1
664 665 -1
665 697 -1
665 666 -1
666 698 -1
666 667 -1
667 699 1
667 668 -1
668 700 -1
668 669 -1
669 701 -1
669 670 -1
670 702 -1
670 671 -1
671 703 1
671 672 -1
672 704 -1
673 705 1
673 704 1
673 674 1
674 706 1
674 675 -1
675 707 1
675 676 1
676 708 -1
676 677 1
677 709 -1
677 678 -1
678 710 1
678 679 1
679 711 -1
679 680 -1
680 712 -1
680 681 1
681 713 -1
681 682 1
682 714 -1
682 683 -1
683 715 -1
683 684 1
684 716 1
684 685 -1
685 717 1
685 686 1
686 718 1
686 687 -1
687 719 -1
687 688 1
688 720 1
688 689 1
689 721 -1
689 690 1
690 722 1
690 691 1
691 723 1
691 692 1
692 724 -1
692 693 -1
693 725 1
693 694 -1
694 726 -1
694 695 -1
695 727 1
695 696 -1
696 728 1
696 697 1
697 729 1
697 698 -1
698 730 -1
698 699 -1
699 731 1
699 700 1
700 732 -1
700 701 -1
701 733 -1
701 702 -1
702 734 -1
702 703 1
703 735 -1
703 704 -1
704 736 1
705 737 1
705 736 -1
705 706 -1
706 738 1
706 707 -1
707 739 1
707 708 1
708 740 1
708 709 1
709 741 -1
709 710 1
710 742 -1
710 711 1
711 743 1
711 712 1
712 744 1
712 713 1
713 745 1
713 714 1
714 746 -1
714 715 -1
715 747 1
715 716 -1
716 748 -1
716 717 1
717 749 -1
717 718 1
718 750 -1
718 719 -1
719 751 1
719 720 1
720 752 -1
720 721 1
721 753 1
721 722 1
722 754 -1
722 723 1
723 755 -1
723 724 -1
724 756 1
724 725 -1
725 757 -1
725 726 -1
726 758 -1
726 727 1
727 759 1
727 728 1
728 760 1
728 729 -1
729 761 1
729 730 1
730 762 -1
730 731 -1
731 763 -1
731 732 1
732 764 -1
732 733 -1
733 765 1
733 734 -1
734 766 -1
734 735 -1
735 767 1
735 736 -1
736 768 -1
737 769 1
737 768 1
737 738 -1
738 770 1
738 739 -1
739 771 -1
739 740 1
740 772 1
740 741 -1
741 773 1
741 742 1
742 774 1
742 743 -1
743 775 -1
743 744 -1
744 776 1
744 745 -1
745 777 1
745 746 1
746 778 -1
746 747 1
747 779 -1
747 748 1
748 780 1
748 749 1
749 781 -1
749 750 -1
750 782 -1
750 751 1
751 783 1
751 752 -1
752 784 -1
752 753 1
753 785 -1
753 754 1
754 786 1
754 755 -1
755 787 -1
755 756 1
756 788 -1
756 757 -1
757 789 -1
757 758 -1
758 790 1
758 759 1
759 791 -1
759 760 1
760 792 1
760 761 1
761 793 1
761 762 -1
762 794 1
762 763 -1
763 795 1
763 764 1
764 796 1
764 765 1
765 797 -1
765 766 1
766 798 -1
766 767 1
767 799 1
767 768 -1
768 800 -1
769 800 1
769 770 1
770 771 -1
771 772 1
772 773 1
773 774 1
774 775 1
775 776 1
776 777 -1
777 778 1
778 779 -1
779 780 1
780 781 1
781 782 1
782 783 1
783 784 -1
784 785 -1
785 786 -1
786 787 -1
787 788 -1
788 789 1
789 790 -1
790 791 1
791 792 -1
792 793 -1
793 794 -1
794 795 1
795 796 1
796 797 -1
797 798 1
798 799 1
799 800 1
